c nIsolatedPIs 0
c maxPI 32
p cnf 235 610
c gate 33 4 20 0
4 -33 0
20 -33 0
-4 -20 33 0
c gate 34 2 18 0
2 -34 0
18 -34 0
-2 -18 34 0
c gate 35 1 17 0
1 -35 0
17 -35 0
-1 -17 35 0
c gate 36 3 19 0
3 -36 0
19 -36 0
-3 -19 36 0
c gate 37 -35 -36 0
-35 -37 0
-36 -37 0
35 36 37 0
c gate 38 -34 37 0
-34 -38 0
37 -38 0
34 -37 38 0
c gate 39 4 -20 0
4 -39 0
-20 -39 0
-4 20 39 0
c gate 40 -4 20 0
-4 -40 0
20 -40 0
4 -20 40 0
c gate 41 -39 -40 0
-39 -41 0
-40 -41 0
39 40 41 0
c gate 42 -3 -19 0
-3 -42 0
-19 -42 0
3 19 42 0
c gate 43 -41 -42 0
-41 -43 0
-42 -43 0
41 42 43 0
c gate 44 -38 43 0
-38 -44 0
43 -44 0
38 -43 44 0
c gate 45 -33 -44 0
-33 -45 0
-44 -45 0
33 44 45 0
c gate 46 -5 21 0
-5 -46 0
21 -46 0
5 -21 46 0
c gate 47 5 -21 0
5 -47 0
-21 -47 0
-5 21 47 0
c gate 48 -46 -47 0
-46 -48 0
-47 -48 0
46 47 48 0
c gate 49 -45 -48 0
-45 -49 0
-48 -49 0
45 48 49 0
c gate 50 -2 18 0
-2 -50 0
18 -50 0
2 -18 50 0
c gate 51 35 -50 0
35 -51 0
-50 -51 0
-35 50 51 0
c gate 52 -2 51 0
-2 -52 0
51 -52 0
2 -51 52 0
c gate 53 -36 52 0
-36 -53 0
52 -53 0
36 -52 53 0
c gate 54 44 53 0
44 -54 0
53 -54 0
-44 -53 54 0
c gate 55 49 -54 0
49 -55 0
-54 -55 0
-49 54 55 0
c gate 56 -6 -22 0
-6 -56 0
-22 -56 0
6 22 56 0
c gate 57 6 22 0
6 -57 0
22 -57 0
-6 -22 57 0
c gate 58 -56 -57 0
-56 -58 0
-57 -58 0
56 57 58 0
c gate 59 5 21 0
5 -59 0
21 -59 0
-5 -21 59 0
c gate 60 58 -59 0
58 -60 0
-59 -60 0
-58 59 60 0
c gate 61 -55 60 0
-55 -61 0
60 -61 0
55 -60 61 0
c gate 62 -7 23 0
-7 -62 0
23 -62 0
7 -23 62 0
c gate 63 7 -23 0
7 -63 0
-23 -63 0
-7 23 63 0
c gate 64 -62 -63 0
-62 -64 0
-63 -64 0
62 63 64 0
c gate 65 -56 -61 0
-56 -65 0
-61 -65 0
56 61 65 0
c gate 66 -64 -65 0
-64 -66 0
-65 -66 0
64 65 66 0
c gate 67 -61 -66 0
-61 -67 0
-66 -67 0
61 66 67 0
c gate 68 -11 -27 0
-11 -68 0
-27 -68 0
11 27 68 0
c gate 69 11 27 0
11 -69 0
27 -69 0
-11 -27 69 0
c gate 70 -68 -69 0
-68 -70 0
-69 -70 0
68 69 70 0
c gate 71 -10 26 0
-10 -71 0
26 -71 0
10 -26 71 0
c gate 72 -9 25 0
-9 -72 0
25 -72 0
9 -25 72 0
c gate 73 6 -22 0
6 -73 0
-22 -73 0
-6 22 73 0
c gate 74 64 -73 0
64 -74 0
-73 -74 0
-64 73 74 0
c gate 75 -1 17 0
-1 -75 0
17 -75 0
1 -17 75 0
c gate 76 -50 -75 0
-50 -76 0
-75 -76 0
50 75 76 0
c gate 77 2 -18 0
2 -77 0
-18 -77 0
-2 18 77 0
c gate 78 3 -19 0
3 -78 0
-19 -78 0
-3 19 78 0
c gate 79 -77 -78 0
-77 -79 0
-78 -79 0
77 78 79 0
c gate 80 -76 79 0
-76 -80 0
79 -80 0
76 -79 80 0
c gate 81 -3 19 0
-3 -81 0
19 -81 0
3 -19 81 0
c gate 82 -40 -81 0
-40 -82 0
-81 -82 0
40 81 82 0
c gate 83 -80 82 0
-80 -83 0
82 -83 0
80 -82 83 0
c gate 84 -39 -47 0
-39 -84 0
-47 -84 0
39 47 84 0
c gate 85 -83 84 0
-83 -85 0
84 -85 0
83 -84 85 0
c gate 86 -46 -58 0
-46 -86 0
-58 -86 0
46 58 86 0
c gate 87 -85 86 0
-85 -87 0
86 -87 0
85 -86 87 0
c gate 88 74 -87 0
74 -88 0
-87 -88 0
-74 87 88 0
c gate 89 -62 -88 0
-62 -89 0
-88 -89 0
62 88 89 0
c gate 90 8 24 0
8 -90 0
24 -90 0
-8 -24 90 0
c gate 91 -8 -24 0
-8 -91 0
-24 -91 0
8 24 91 0
c gate 92 -90 -91 0
-90 -92 0
-91 -92 0
90 91 92 0
c gate 93 89 -92 0
89 -93 0
-92 -93 0
-89 92 93 0
c gate 94 8 -24 0
8 -94 0
-24 -94 0
-8 24 94 0
c gate 95 9 -25 0
9 -95 0
-25 -95 0
-9 25 95 0
c gate 96 -94 -95 0
-94 -96 0
-95 -96 0
94 95 96 0
c gate 97 -93 96 0
-93 -97 0
96 -97 0
93 -96 97 0
c gate 98 -72 -97 0
-72 -98 0
-97 -98 0
72 97 98 0
c gate 99 10 -26 0
10 -99 0
-26 -99 0
-10 26 99 0
c gate 100 -71 -99 0
-71 -100 0
-99 -100 0
71 99 100 0
c gate 101 -98 100 0
-98 -101 0
100 -101 0
98 -100 101 0
c gate 102 -71 -101 0
-71 -102 0
-101 -102 0
71 101 102 0
c gate 103 -70 -102 0
-70 -103 0
-102 -103 0
70 102 103 0
c gate 104 -14 -30 0
-14 -104 0
-30 -104 0
14 30 104 0
c gate 105 14 30 0
14 -105 0
30 -105 0
-14 -30 105 0
c gate 106 -104 -105 0
-104 -106 0
-105 -106 0
104 105 106 0
c gate 107 16 32 0
16 -107 0
32 -107 0
-16 -32 107 0
c gate 108 -16 -32 0
-16 -108 0
-32 -108 0
16 32 108 0
c gate 109 -107 -108 0
-107 -109 0
-108 -109 0
107 108 109 0
c gate 110 -106 -109 0
-106 -110 0
-109 -110 0
106 109 110 0
c gate 111 -15 -31 0
-15 -111 0
-31 -111 0
15 31 111 0
c gate 112 15 31 0
15 -112 0
31 -112 0
-15 -31 112 0
c gate 113 -111 -112 0
-111 -113 0
-112 -113 0
111 112 113 0
c gate 114 13 29 0
13 -114 0
29 -114 0
-13 -29 114 0
c gate 115 -13 -29 0
-13 -115 0
-29 -115 0
13 29 115 0
c gate 116 -114 -115 0
-114 -116 0
-115 -116 0
114 115 116 0
c gate 117 12 28 0
12 -117 0
28 -117 0
-12 -28 117 0
c gate 118 -12 -28 0
-12 -118 0
-28 -118 0
12 28 118 0
c gate 119 -117 -118 0
-117 -119 0
-118 -119 0
117 118 119 0
c gate 120 -116 -119 0
-116 -120 0
-119 -120 0
116 119 120 0
c gate 121 -113 120 0
-113 -121 0
120 -121 0
113 -120 121 0
c gate 122 110 121 0
110 -122 0
121 -122 0
-110 -121 122 0
c gate 123 103 122 0
103 -123 0
122 -123 0
-103 -122 123 0
c gate 124 70 102 0
70 -124 0
102 -124 0
-70 -102 124 0
c gate 125 -103 -124 0
-103 -125 0
-124 -125 0
103 124 125 0
c gate 126 -96 100 0
-96 -126 0
100 -126 0
96 -100 126 0
c gate 127 -99 -126 0
-99 -127 0
-126 -127 0
99 126 127 0
c gate 128 70 -127 0
70 -128 0
-127 -128 0
-70 127 128 0
c gate 129 -125 -128 0
-125 -129 0
-128 -129 0
125 128 129 0
c gate 130 96 -100 0
96 -130 0
-100 -130 0
-96 100 130 0
c gate 131 -126 -130 0
-126 -131 0
-130 -131 0
126 130 131 0
c gate 132 98 -100 0
98 -132 0
-100 -132 0
-98 100 132 0
c gate 133 -101 -132 0
-101 -133 0
-132 -133 0
101 132 133 0
c gate 134 -131 -133 0
-131 -134 0
-133 -134 0
131 133 134 0
c gate 135 131 133 0
131 -135 0
133 -135 0
-131 -133 135 0
c gate 136 -10 -26 0
-10 -136 0
-26 -136 0
10 26 136 0
c gate 137 66 92 0
66 -137 0
92 -137 0
-66 -92 137 0
c gate 138 -7 -23 0
-7 -138 0
-23 -138 0
7 23 138 0
c gate 139 -90 138 0
-90 -139 0
138 -139 0
90 -138 139 0
c gate 140 -9 -25 0
-9 -140 0
-25 -140 0
9 25 140 0
c gate 141 -91 -140 0
-91 -141 0
-140 -141 0
91 140 141 0
c gate 142 -139 141 0
-139 -142 0
141 -142 0
139 -141 142 0
c gate 143 -137 142 0
-137 -143 0
142 -143 0
137 -142 143 0
c gate 144 10 26 0
10 -144 0
26 -144 0
-10 -26 144 0
c gate 145 9 25 0
9 -145 0
25 -145 0
-9 -25 145 0
c gate 146 -144 -145 0
-144 -146 0
-145 -146 0
144 145 146 0
c gate 147 -143 146 0
-143 -147 0
146 -147 0
143 -146 147 0
c gate 148 -136 -147 0
-136 -148 0
-147 -148 0
136 147 148 0
c gate 149 -69 -148 0
-69 -149 0
-148 -149 0
69 148 149 0
c gate 150 -68 -149 0
-68 -150 0
-149 -150 0
68 149 150 0
c gate 151 119 150 0
119 -151 0
150 -151 0
-119 -150 151 0
c gate 152 -114 -117 0
-114 -152 0
-117 -152 0
114 117 152 0
c gate 153 106 -152 0
106 -153 0
-152 -153 0
-106 152 153 0
c gate 154 -106 152 0
-106 -154 0
152 -154 0
106 -152 154 0
c gate 155 -153 -154 0
-153 -155 0
-154 -155 0
153 154 155 0
c gate 156 -151 152 0
-151 -156 0
152 -156 0
151 -152 156 0
c gate 157 -115 -156 0
-115 -157 0
-156 -157 0
115 156 157 0
c gate 158 -106 157 0
-106 -158 0
157 -158 0
106 -157 158 0
c gate 159 106 -157 0
106 -159 0
-157 -159 0
-106 157 159 0
c gate 160 -158 -159 0
-158 -160 0
-159 -160 0
158 159 160 0
c gate 161 155 160 0
155 -161 0
160 -161 0
-155 -160 161 0
c gate 162 -155 -160 0
-155 -162 0
-160 -162 0
155 160 162 0
c gate 163 -161 -162 0
-161 -163 0
-162 -163 0
161 162 163 0
c gate 164 -151 163 0
-151 -164 0
163 -164 0
151 -163 164 0
c gate 165 34 35 0
34 -165 0
35 -165 0
-34 -35 165 0
c gate 166 67 165 0
67 -166 0
165 -166 0
-67 -165 166 0
c gate 167 -137 -166 0
-137 -167 0
-166 -167 0
137 166 167 0
c gate 168 164 167 0
164 -168 0
167 -168 0
-164 -167 168 0
c gate 169 -142 146 0
-142 -169 0
146 -169 0
142 -146 169 0
c gate 170 -68 -136 0
-68 -170 0
-136 -170 0
68 136 170 0
c gate 171 119 170 0
119 -171 0
170 -171 0
-119 -170 171 0
c gate 172 -169 171 0
-169 -172 0
171 -172 0
169 -171 172 0
c gate 173 -150 172 0
-150 -173 0
172 -173 0
150 -172 173 0
c gate 174 137 -173 0
137 -174 0
-173 -174 0
-137 173 174 0
c gate 175 164 -174 0
164 -175 0
-174 -175 0
-164 174 175 0
c gate 176 -104 -159 0
-104 -176 0
-159 -176 0
104 159 176 0
c gate 177 113 -176 0
113 -177 0
-176 -177 0
-113 176 177 0
c gate 178 -111 -177 0
-111 -178 0
-177 -178 0
111 177 178 0
c gate 179 109 -178 0
109 -179 0
-178 -179 0
-109 178 179 0
c gate 180 -109 178 0
-109 -180 0
178 -180 0
109 -178 180 0
c gate 181 -179 -180 0
-179 -181 0
-180 -181 0
179 180 181 0
c gate 182 -105 -153 0
-105 -182 0
-153 -182 0
105 153 182 0
c gate 183 113 -182 0
113 -183 0
-182 -183 0
-113 182 183 0
c gate 184 -112 -183 0
-112 -184 0
-183 -184 0
112 183 184 0
c gate 185 109 184 0
109 -185 0
184 -185 0
-109 -184 185 0
c gate 186 -109 -184 0
-109 -186 0
-184 -186 0
109 184 186 0
c gate 187 -185 -186 0
-185 -187 0
-186 -187 0
185 186 187 0
c gate 188 -181 187 0
-181 -188 0
187 -188 0
181 -187 188 0
c gate 189 181 -187 0
181 -189 0
-187 -189 0
-181 187 189 0
c gate 190 -113 182 0
-113 -190 0
182 -190 0
113 -182 190 0
c gate 191 -183 -190 0
-183 -191 0
-190 -191 0
183 190 191 0
c gate 192 -113 176 0
-113 -192 0
176 -192 0
113 -176 192 0
c gate 193 -177 -192 0
-177 -193 0
-192 -193 0
177 192 193 0
c gate 194 -191 -193 0
-191 -194 0
-193 -194 0
191 193 194 0
c gate 195 191 193 0
191 -195 0
193 -195 0
-191 -193 195 0
c gate 196 -116 151 0
-116 -196 0
151 -196 0
116 -151 196 0
c gate 197 -162 -196 0
-162 -197 0
-196 -197 0
162 196 197 0
c gate 198 -195 -197 0
-195 -198 0
-197 -198 0
195 197 198 0
c gate 199 -194 -198 0
-194 -199 0
-198 -199 0
194 198 199 0
c gate 200 -189 -199 0
-189 -200 0
-199 -200 0
189 199 200 0
c gate 201 -188 -200 0
-188 -201 0
-200 -201 0
188 200 201 0
c gate 202 -175 201 0
-175 -202 0
201 -202 0
175 -201 202 0
c gate 203 -168 -202 0
-168 -203 0
-202 -203 0
168 202 203 0
c gate 204 178 185 0
178 -204 0
185 -204 0
-178 -185 204 0
c gate 205 -87 -204 0
-87 -205 0
-204 -205 0
87 204 205 0
c gate 206 203 205 0
203 -206 0
205 -206 0
-203 -205 206 0
c gate 207 -64 87 0
-64 -207 0
87 -207 0
64 -87 207 0
c gate 208 -87 -107 0
-87 -208 0
-107 -208 0
87 107 208 0
c gate 209 -185 208 0
-185 -209 0
208 -209 0
185 -208 209 0
c gate 210 179 209 0
179 -210 0
209 -210 0
-179 -209 210 0
c gate 211 -207 -210 0
-207 -211 0
-210 -211 0
207 210 211 0
c gate 212 -206 211 0
-206 -212 0
211 -212 0
206 -211 212 0
c gate 213 -93 -212 0
-93 -213 0
-212 -213 0
93 212 213 0
c gate 214 74 92 0
74 -214 0
92 -214 0
-74 -92 214 0
c gate 215 89 214 0
89 -215 0
214 -215 0
-89 -214 215 0
c gate 216 -93 -215 0
-93 -216 0
-215 -216 0
93 215 216 0
c gate 217 -72 -95 0
-72 -217 0
-95 -217 0
72 95 217 0
c gate 218 -215 217 0
-215 -218 0
217 -218 0
215 -217 218 0
c gate 219 -216 -218 0
-216 -219 0
-218 -219 0
216 218 219 0
c gate 220 -213 -219 0
-213 -220 0
-219 -220 0
213 219 220 0
c gate 221 -135 -220 0
-135 -221 0
-220 -221 0
135 220 221 0
c gate 222 -134 -221 0
-134 -222 0
-221 -222 0
134 221 222 0
c gate 223 -129 222 0
-129 -223 0
222 -223 0
129 -222 223 0
c gate 224 -102 128 0
-102 -224 0
128 -224 0
102 -128 224 0
c gate 225 -103 -224 0
-103 -225 0
-224 -225 0
103 224 225 0
c gate 226 -223 225 0
-223 -226 0
225 -226 0
223 -225 226 0
c gate 227 -123 -226 0
-123 -227 0
-226 -227 0
123 226 227 0
c gate 228 -61 -165 0
-61 -228 0
-165 -228 0
61 165 228 0
c gate 229 227 -228 0
227 -229 0
-228 -229 0
-227 228 229 0
c gate 230 52 -61 0
52 -230 0
-61 -230 0
-52 61 230 0
c gate 231 -227 230 0
-227 -231 0
230 -231 0
227 -230 231 0
c gate 232 -229 -231 0
-229 -232 0
-231 -232 0
229 231 232 0
c gate 233 67 -232 0
67 -233 0
-232 -233 0
-67 232 233 0
c gate 234 -67 232 0
-67 -234 0
232 -234 0
67 -232 234 0
c gate 235 -233 -234 0
-233 -235 0
-234 -235 0
233 234 235 0
c PO
-235 0
